18
1 -6 9842 8
-3 6 9401 7
0 2 8918 0
2 5 8941 7
2 -6 5457 2
-3 6 8779 3
3 5 4332 5
0 -2 8184 4
4 -2 7527 9
2 -5 1847 8
-5 -3 2537 8
-4 -5 3351 4
2 1 2507 3
4 -5 2894 6
1 5 9691 8
6 -5 5027 9
0 -6 9953 1
5 -3 9186 5
